<number of tasks>
89

<cycle time>
12

<task times>
1 1
2 2
3 3
4 4
5 5
6 6
7 7
8 8
9 9
10 10
11 1
12 2
13 3
14 4
15 5
16 6
17 7
18 8
19 9
20 10
21 1
22 2
23 3
24 4
25 5
26 6
27 7
28 8
29 9
30 10
31 1
32 2
33 3
34 4
35 5
36 6
37 7
38 8
39 9
40 10
41 1
42 2
43 3
44 4
45 5
46 6
47 7
48 8
49 9
50 10
51 1
52 2
53 3
54 4
55 5
56 6
57 7
58 8
59 9
60 10
61 1
62 2
63 3
64 4
65 5
66 6
67 7
68 8
69 9
70 10
71 1
72 2
73 3
74 4
75 5
76 6
77 7
78 8
79 9
80 10
81 1
82 2
83 3
84 4
85 5
86 6
87 7
88 8
89 9

<task process alternatives>
1: 1,15 ; 2,8
2: 2,15 ; 3,8
3: 3,15 ; 4,8
4: 4,15 ; 5,8
5: 4,15 ; 6,8
6: 5,15 ; 8,8
7: 6,15 ; 9,8
8: 7,15 ; 10,8
9: 8,15 ; 11,8
10: 8,15 ; 12,8
11: 1,15 ; 2,8
12: 2,15 ; 3,8
13: 3,15 ; 4,8
14: 4,15 ; 5,8
15: 4,15 ; 6,8
16: 5,15 ; 8,8
17: 6,15 ; 9,8
18: 7,15 ; 10,8
19: 8,15 ; 11,8
20: 8,15 ; 12,8
21: 1,15 ; 2,8
22: 2,15 ; 3,8
23: 3,15 ; 4,8
24: 4,15 ; 5,8
25: 4,15 ; 6,8
26: 5,15 ; 8,8
27: 6,15 ; 9,8
28: 7,15 ; 10,8
29: 8,15 ; 11,8
30: 8,15 ; 12,8
31: 1,15 ; 2,8
32: 2,15 ; 3,8
33: 3,15 ; 4,8
34: 4,15 ; 5,8
35: 4,15 ; 6,8
36: 5,15 ; 8,8
37: 6,15 ; 9,8
38: 7,15 ; 10,8
39: 8,15 ; 11,8
40: 8,15 ; 12,8
41: 1,15 ; 2,8
42: 2,15 ; 3,8
43: 3,15 ; 4,8
44: 4,15 ; 5,8
45: 4,15 ; 6,8
46: 5,15 ; 8,8
47: 6,15 ; 9,8
48: 7,15 ; 10,8
49: 8,15 ; 11,8
50: 8,15 ; 12,8
51: 1,15 ; 2,8
52: 2,15 ; 3,8
53: 3,15 ; 4,8
54: 4,15 ; 5,8
55: 4,15 ; 6,8
56: 5,15 ; 8,8
57: 6,15 ; 9,8
58: 7,15 ; 10,8
59: 8,15 ; 11,8
60: 8,15 ; 12,8
61: 1,15 ; 2,8
62: 2,15 ; 3,8
63: 3,15 ; 4,8
64: 4,15 ; 5,8
65: 4,15 ; 6,8
66: 5,15 ; 8,8
67: 6,15 ; 9,8
68: 7,15 ; 10,8
69: 8,15 ; 11,8
70: 8,15 ; 12,8
71: 1,15 ; 2,8
72: 2,15 ; 3,8
73: 3,15 ; 4,8
74: 4,15 ; 5,8
75: 4,15 ; 6,8
76: 5,15 ; 8,8
77: 6,15 ; 9,8
78: 7,15 ; 10,8
79: 8,15 ; 11,8
80: 8,15 ; 12,8
81: 1,15 ; 2,8
82: 2,15 ; 3,8
83: 3,15 ; 4,8
84: 4,15 ; 5,8
85: 4,15 ; 6,8
86: 5,15 ; 8,8
87: 6,15 ; 9,8
88: 7,15 ; 10,8
89: 8,15 ; 11,8

<incompatible tasks>
76,57
23,78
69,8
82,79
50,88
2,41
85,28
87,4
24,31
6,72
59,35
35,71
41,71

<precedence relations>
53,69
81,85
4,9
87,89
5,10
39,42
8,18
57,66
6,11
79,81
18,19
53,71
73,74
14,15
57,59
74,75
7,12
47,48
62,67
25,27
35,37
38,39
80,81
57,61
85,86
81,82
25,29
12,13
22,23
77,78
65,67
49,50
57,63
68,72
13,14
45,46
55,56
50,51
53,68
81,84
82,83
30,54
51,52
29,31
20,28
46,47
39,41
23,24
58,67
78,79
84,86
57,65
21,54
27,33
76,81
24,25
56,57
53,70
20,21
41,53
52,53
57,58
19,22
36,38
25,26
4,6
14,16
31,32
86,87
61,67
40,44
17,18
54,55
47,49
63,67
43,45
4,8
70,72
87,88
75,77
1,2
10,14
28,29
71,73
39,43
2,3
9,18
83,86
3,4
18,20
35,36
59,67
57,60
74,76
15,17
32,33
72,78
4,5
67,73
42,53
60,67
57,62
37,38
33,34
64,67
72,80
4,7
26,37
69,72
44,52
39,40
16,54
34,35
11,12
57,64
66,67

<number of task attributes>
3

<task attribute values>
1,1:70
1,2:11
1,3:76
2,1:6
2,2:61
2,3:14
3,2:2
4,1:16
4,2:25
4,3:1
5,1:91
5,2:49
5,3:24
6,1:81
6,2:49
6,3:39
7,2:42
7,3:4
8,1:80
8,2:87
8,3:62
9,1:48
9,2:80
9,3:35
10,1:92
10,2:98
10,3:77
11,1:14
11,2:18
11,3:10
12,1:1
12,2:23
12,3:33
13,1:3
13,2:7
13,3:5
14,1:1
14,3:13
15,1:84
15,2:48
15,3:47
16,1:56
16,2:38
16,3:43
17,1:13
17,2:33
17,3:44
18,1:97
18,2:83
18,3:78
19,1:51
19,2:28
19,3:18
20,1:35
20,2:57
20,3:19
21,1:3
21,2:8
21,3:67
22,1:14
22,2:62
22,3:65
23,1:32
23,2:97
23,3:71
24,1:67
24,2:1
24,3:2
25,3:2
26,1:42
26,2:83
26,3:39
27,1:10
27,2:14
27,3:79
28,1:73
28,2:19
28,3:75
29,1:81
29,2:94
29,3:18
30,1:85
30,2:38
30,3:84
31,1:18
31,2:3
31,3:59
32,2:2
32,3:3
33,1:61
33,2:58
33,3:17
34,1:51
34,2:1
34,3:31
35,1:94
35,2:81
35,3:54
36,1:30
36,2:12
36,3:55
37,1:1
37,2:11
37,3:35
38,1:37
38,2:48
38,3:25
39,1:51
39,2:79
39,3:54
40,1:71
40,2:22
40,3:8
41,1:6
41,2:49
41,3:37
42,1:15
42,2:75
42,3:36
43,1:35
43,2:4
43,3:29
44,1:89
44,2:59
44,3:2
45,1:23
45,2:81
45,3:20
46,1:1
46,2:81
46,3:83
47,1:19
47,2:38
47,3:47
48,1:57
48,2:6
48,3:96
49,1:4
49,2:50
49,3:84
50,1:62
50,2:60
50,3:79
51,1:1
51,2:34
52,1:21
52,2:34
52,3:5
53,1:92
53,2:45
53,3:47
54,1:39
54,2:49
54,3:69
55,1:13
55,2:46
55,3:37
56,1:35
56,2:2
56,3:25
57,1:69
57,2:9
57,3:52
58,1:5
58,2:8
58,3:28
59,1:5
59,2:23
59,3:41
60,1:48
60,2:24
60,3:12
61,1:34
61,2:2
61,3:16
62,1:32
62,2:42
62,3:97
63,1:36
63,2:10
63,3:8
64,1:76
64,2:58
64,3:53
65,1:1
65,2:17
65,3:24
66,1:36
66,2:2
66,3:10
67,1:1
67,2:20
67,3:36
68,1:13
68,2:82
68,3:81
69,1:29
69,2:32
69,3:39
70,1:43
70,2:23
71,1:14
71,2:9
71,3:6
72,1:47
72,2:87
72,3:65
73,1:6
73,2:57
73,3:4
74,1:28
74,3:1
75,1:84
75,2:5
75,3:75
76,1:93
76,2:65
76,3:26
77,1:11
77,2:64
77,3:24
78,1:14
78,2:5
78,3:33
79,1:6
79,2:9
79,3:18
80,1:24
80,2:57
80,3:28
81,1:4
81,2:19
81,3:10
82,2:3
82,3:63
83,2:7
84,1:15
84,2:51
84,3:3
85,1:76
85,2:14
85,3:20
86,1:9
86,2:55
86,3:17
87,1:63
87,2:96
87,3:63
88,1:90
88,2:77
88,3:89
89,1:21
89,2:48
89,3:65

<attribute bounds per station>
1:100
2:100
3:100

<incompatible tasks>
1,7
1,19
1,33
1,55
1,64
1,73
1,76
1,78
1,79
2,7
2,24
2,35
2,41
2,49
2,52
2,56
2,75
2,79
2,89
3,10
3,26
3,33
3,49
3,73
3,80
3,81
3,84
4,34
4,40
4,42
4,50
4,60
4,71
4,78
4,81
5,13
5,15
5,24
5,26
5,27
5,28
5,33
5,50
5,59
5,66
5,82
5,85
5,89
6,7
6,15
6,16
6,17
6,18
6,19
6,34
6,88
7,18
7,49
7,60
7,87
7,88
7,89
8,16
8,19
8,33
8,56
8,67
8,68
8,73
8,83
8,84
8,89
9,26
9,35
9,39
9,40
9,44
9,60
9,83
9,84
10,14
10,15
10,30
10,31
10,35
10,42
10,55
10,73
10,84
11,32
11,43
11,54
11,60
11,66
11,78
12,27
12,37
12,44
12,49
12,65
12,68
12,72
12,76
12,77
12,85
12,86
13,27
13,36
13,39
13,55
13,57
13,59
13,63
13,69
13,75
13,83
13,85
13,88
14,15
14,27
14,41
14,53
14,88
15,45
15,73
15,77
15,87
16,20
16,21
16,23
16,31
16,32
16,38
16,49
16,62
16,65
16,69
16,72
16,79
16,84
17,27
17,37
17,38
17,40
17,43
17,55
17,56
17,73
17,82
18,33
18,37
18,39
18,66
19,20
19,56
19,68
19,71
19,72
19,79
19,86
19,87
20,43
20,47
20,52
20,56
20,58
20,70
20,89
21,25
21,30
21,43
21,70
22,59
22,62
22,69
22,79
23,33
23,79
23,80
24,53
24,66
24,68
24,70
24,76
25,31
25,34
25,35
25,43
25,53
25,59
25,61
25,63
25,65
25,83
26,29
26,37
26,42
26,48
26,56
26,61
26,66
26,74
27,45
27,53
27,58
27,62
27,64
27,68
27,71
27,75
28,31
28,37
28,39
28,51
28,56
28,63
29,46
29,55
29,66
30,32
30,51
30,52
30,53
30,60
30,69
30,70
30,74
30,88
31,38
31,40
31,50
31,53
31,58
31,60
31,71
31,79
31,84
31,88
32,43
32,45
32,87
33,41
33,64
33,71
33,82
34,37
34,46
34,81
34,83
35,43
35,44
35,55
35,56
36,39
36,44
36,55
36,63
36,70
36,87
36,89
37,48
37,53
37,56
37,82
38,39
38,52
38,59
38,63
38,81
38,83
38,85
39,46
39,78
39,87
40,41
40,43
40,73
40,76
40,79
40,83
40,87
41,47
41,49
41,62
41,77
41,86
42,67
42,70
43,55
43,81
44,65
45,50
45,63
45,68
45,79
46,49
46,77
46,87
47,55
47,58
47,60
47,73
47,84
47,88
48,54
48,66
48,76
48,80
48,83
48,88
49,58
49,62
49,66
49,72
49,87
50,57
50,65
51,75
52,66
52,69
52,89
53,82
53,85
53,86
54,57
54,58
54,84
55,60
55,76
55,84
55,85
55,87
56,67
56,72
56,80
56,84
56,89
57,62
57,78
57,83
58,67
58,69
58,72
58,87
59,62
60,67
60,71
60,78
61,66
61,69
61,74
61,77
61,82
62,65
62,80
63,84
64,66
65,79
66,72
66,73
66,81
66,89
67,74
67,79
67,82
69,75
70,84
71,81
71,84
71,89
72,75
74,80
74,88
75,79
75,85
75,88
76,77
76,85
77,78
77,79
79,86
79,87

<optimal SALBP-1 value>
44

<rand seed>
236278236

<end>
